clingo version 5.7.1
Reading from stdin
Solving...
SATISFIABLE

Models       : 1627672
Calls        : 1
Time         : 1688.554s (Solving: 1609.15s 1st Model: 0.09s Unsat: 0.00s)
CPU Time     : 1687.363s
